75
1 86 
1 25 
2 17 109 
3 104 29 92 
3 88 26 83 
1 37 
1 65 
2 11 55 
2 103 97 
2 39 70 
3 79 32 113 
2 112 3 
3 56 91 42 
1 77 
1 15 
1 105 
1 80 
2 82 20 
3 117 87 24 
2 102 84 
1 31 
3 36 8 94 
3 9 41 71 
3 64 95 107 
1 63 
3 45 47 111 
2 59 90 
3 108 116 6 
1 101 
3 115 75 5 
3 44 98 1 
1 19 
3 41 71 115 
1 69 
2 10 7 
1 28 
1 51 
1 54 
2 61 76 
1 2 
1 93 
1 62 
1 66 
1 119 
1 73 
2 118 52 
3 56 91 42 
3 106 110 72 
3 78 99 74 
1 48 
1 16 
1 89 
1 53 
1 18 
2 100 40 
1 50 
1 81 
2 67 96 
1 114 
1 85 
1 57 
1 27 
1 35 
1 38 
1 81 
1 4 
1 49 
1 34 
1 58 
1 46 
1 120 
1 14 
1 33 
1 21 
1 35 
